
Gurobi 11.0.3 (linux64) logging started Mon 18 Nov 2024 11:51:30 PM CST

Set parameter LogFile to value "/home/dlcole3/graph_abstraction/hierarchical_graphs/git_storage/CS1/HP_low_reserves/gurobi_logs/serial/logfile_ST23_7.log"

Gurobi 11.0.3 (linux64) logging started Tue 19 Nov 2024 12:00:07 AM CST

Set parameter LogFile to value "/home/dlcole3/graph_abstraction/hierarchical_graphs/git_storage/CS1/HP_low_reserves/gurobi_logs/serial/logfile_ST23_7.log"
Gurobi Optimizer version 11.0.3 build v11.0.3rc0 (linux64 - "Ubuntu 18.04.3 LTS")

CPU model: Intel(R) Xeon(R) CPU E5-2698 v4 @ 2.20GHz, instruction set [SSE2|AVX|AVX2]
Thread count: 40 physical cores, 80 logical processors, using up to 20 threads

Optimize a model with 29168 rows, 50688 columns and 136175 nonzeros
Model fingerprint: 0x33886de4
Variable types: 46944 continuous, 3744 integer (3744 binary)
Coefficient statistics:
  Matrix range     [6e-01, 2e+04]
  Objective range  [2e+00, 2e+04]
  Bounds range     [5e-02, 2e+05]
  RHS range        [5e-02, 7e+03]
Presolve removed 13679 rows and 38295 columns
Presolve time: 0.36s
Presolved: 15489 rows, 12393 columns, 66039 nonzeros
Variable types: 9311 continuous, 3082 integer (3082 binary)
Found heuristic solution: objective 422318.69800

Root relaxation: objective 7.641689e+04, 9561 iterations, 0.56 seconds (0.44 work units)

    Nodes    |    Current Node    |     Objective Bounds      |     Work
 Expl Unexpl |  Obj  Depth IntInf | Incumbent    BestBd   Gap | It/Node Time

     0     0 76416.8884    0   32 422318.698 76416.8884  81.9%     -    1s
H    0     0                    95574.290060 76416.8884  20.0%     -    1s
H    0     0                    77607.785337 76416.8884  1.53%     -    1s
     0     0 76416.8884    0   32 77607.7853 76416.8884  1.53%     -    2s
     0     0 76416.8884    0   32 77607.7853 76416.8884  1.53%     -    2s
H    0     0                    77607.784596 76416.8884  1.53%     -    2s
     0     0 76430.2691    0   33 77607.7846 76430.2691  1.52%     -    3s
     0     0 76430.5174    0   37 77607.7846 76430.5174  1.52%     -    3s
     0     0 76505.3076    0   37 77607.7846 76505.3076  1.42%     -    3s
     0     0 76505.3076    0   37 77607.7846 76505.3076  1.42%     -    3s
     0     0 76512.9473    0   37 77607.7846 76512.9473  1.41%     -    3s
H    0     0                    77607.784537 76512.9473  1.41%     -    3s
     0     2 76512.9473    0   37 77607.7845 76512.9473  1.41%     -    4s
H   29    43                    77607.784260 76532.1275  1.39%  42.1    4s
H   36    43                    77607.783697 76532.1275  1.39%  37.5    4s
    68    72 77046.8633    7   51 77607.7837 76533.1035  1.38%  43.0    5s
H  638   533                    77512.756945 76534.2754  1.26%  24.2    6s
H  954   679                    77287.667191 76534.2754  0.97%  24.1    9s
H  955   679                    77127.031958 76534.2754  0.77%  24.1    9s
H  970   679                    77112.926918 76534.2754  0.75%  24.5    9s
H  974   679                    77056.831080 76534.2754  0.68%  24.5    9s
H 1193   729                    77056.830353 76539.3131  0.67%  23.7    9s
  1845  1078 76825.3831   19   41 77056.8304 76547.7523  0.66%  22.4   10s
H 2730  1160                    77056.830244 76568.3816  0.63%  22.6   12s
H 2749  1160                    77056.829990 76568.3816  0.63%  22.6   12s
  5813  1321 76840.8807   14   37 77056.8300 76799.5907  0.33%  22.6   15s

Cutting planes:
  Gomory: 1
  MIR: 1

Explored 6850 nodes (167591 simplex iterations) in 15.53 seconds (12.85 work units)
Thread count was 20 (of 80 available processors)

Solution count 10: 77056.8 77056.8 77056.8 ... 422319

Optimal solution found (tolerance 3.00e-03)
Best objective 7.705682999770e+04, best bound 7.683162977631e+04, gap 0.2923%

User-callback calls 16963, time in user-callback 0.01 sec
